c instance by G2
c solution = 1001011111000000001111011
c Known solution cost is 1043 
p cnf 25 30
w 46 64 92 81 41 31 51 6 24 89 1 4 89 55 55 88 29 11 11 6 0 2 91 38 38
18 -22 -12 0
-8 1 -17 0
-9 -7 -15 0
10 1 -14 0
11 -14 12 0
-9 10 -20 0
24 -20 11 0
9 -12 -17 0
-18 5 11 0
-10 -8 25 0
-16 23 -21 0
2 -17 -21 0
-12 -22 -24 0
-1 -8 19 0
6 -1 14 0
1 23 -24 0
7 3 -21 0
-10 -22 21 0
-2 17 23 0
16 -19 -3 0
16 -6 -23 0
17 -22 -11 0
-24 13 4 0
2 11 -13 0
13 14 9 0
20 5 11 0
-2 14 -17 0
-1 -19 -5 0
8 -21 17 0
5 -24 22 0
